% Auto-generated by scripts/generate_dzn.py
% problem_type   = regex
% instance       = regex_87
% source_json    = instances_json/1_medium_blowup/regex_87.json
% blowup         = 5.785714285714286
% representation = NFA

mode = 1;

var_count = 22;
n_constraints = 2;
Q = 17;
S = 2;
q0 = [1, 1];
F = [{11}, {17}];
weights = [4, 2, 3, 5, 2, 3, 3, 3, 10, 6, 10, 10, 8, 8, 2, 6, 10, 2, 6, 1, 10, 1];
d_dfa = array3d(1..2, 1..17, 1..2, [
  % k = 1
    0, 0,
    0, 0,
    0, 0,
    0, 0,
    0, 0,
    0, 0,
    0, 0,
    0, 0,
    0, 0,
    0, 0,
    0, 0,
    0, 0,
    0, 0,
    0, 0,
    0, 0,
    0, 0,
    0, 0,

  % k = 2
    0, 0,
    0, 0,
    0, 0,
    0, 0,
    0, 0,
    0, 0,
    0, 0,
    0, 0,
    0, 0,
    0, 0,
    0, 0,
    0, 0,
    0, 0,
    0, 0,
    0, 0,
    0, 0,
    0, 0
]);
d_nfa = array3d(1..2, 1..17, 1..2, [
  % k = 1
    {1}, {1, 2},
    {3}, {},
    {4}, {4},
    {5}, {5},
    {6}, {6},
    {7}, {7},
    {8}, {8},
    {9}, {9},
    {10}, {10},
    {11}, {11},
    {}, {},
    {}, {},
    {}, {},
    {}, {},
    {}, {},
    {}, {},
    {}, {},

  % k = 2
    {2}, {1},
    {3}, {2},
    {4}, {3},
    {5}, {4},
    {6}, {5},
    {7}, {6},
    {8}, {7},
    {9}, {8},
    {10}, {9},
    {11}, {10},
    {12}, {11},
    {13}, {12},
    {14}, {13},
    {15}, {14},
    {16}, {15},
    {17}, {16},
    {}, {17}
]);
